nbESG = 3;
nomESG   =  ["CM", "TD", "TP"];

nbUE = 10;

groupesUE =[|    1,     1,     1,     1,     1,     1,     1,     1,     1,     1,
            |    2,     0,     1,     0,     1,     2,     2,     2,     2,     1,
            |    0,     2,     2,     2,     0,     2,     2,     2,     2,     0
|];


heuresUE = [|    5,    15,    10,     5,    10,    15,    20,    20,    20,     5,
            |    5,     0,    15,     0,    10,     5,    15,    15,    10,     5,
            |    0,    30,    25,     5,     0,    20,    20,    20,    30,     0
|];
